473854
2391 0 1 2 5 4 3 1037 1036 1038 1039 1042 1041 2383 2384 2385 2388 2389 2390 2387 2386 1040 2382 2381 2374 2373 2372 2371 2370 2369 2368 2367 2366 2365 2364 2363 2362 2361 2359 2360 2339 2340 2338 2337 2336 2335 2334 2331 2332 2333 2330 2329 2328 2327 2326 2325 2324 2323 2322 2321 2320 1135 1134 1133 1132 1131 1130 1129 1128 1127 1126 1125 1124 1123 1122 1121 1120 1119 1118 1117 1053 1052 1051 1050 1049 1048 1047 1046 1045 1043 1044 2380 2379 2378 2377 2376 2375 28 25 30 29 31 33 34 35 36 37 38 39 40 21 20 19 18 17 16 15 14 13 12 11 10 9 8 7 6 1026 1028 1029 1030 1032 1031 1033 1035 1034 999 998 997 996 1001 1002 1005 1004 1003 1000 995 994 993 992 991 990 989 988 987 986 985 984 983 982 980 981 969 970 971 972 973 974 975 976 977 978 979 968 967 966 965 964 962 961 963 960 959 958 957 956 955 954 953 952 951 950 947 948 943 944 945 946 949 942 940 939 938 937 936 935 934 933 932 931 930 929 928 927 926 925 924 923 922 921 920 919 918 916 915 917 914 913 912 911 910 909 908 907 906 903 904 905 889 888 887 886 885 884 883 881 880 879 878 877 876 875 874 873 872 869 871 870 810 809 808 812 813 814 811 816 815 817 818 819 820 821 822 823 824 825 826 827 828 829 831 830 832 833 834 835 836 837 838 841 842 840 839 847 848 849 850 851 853 852 854 855 856 857 858 859 860 863 862 861 864 866 865 867 868 882 890 891 892 893 894 895 798 799 797 796 795 896 897 900 899 898 901 902 800 802 801 803 804 805 806 807 224 225 226 227 228 229 219 220 221 222 223 218 217 216 215 288 287 286 285 284 283 282 281 280 278 279 277 276 238 239 240 243 242 241 275 274 273 272 271 270 268 269 267 266 264 263 262 261 260 259 258 257 256 255 253 254 250 251 252 722 721 720 719 718 717 716 715 714 733 734 735 736 737 738 739 740 741 742 743 744 745 746 747 748 749 750 751 752 753 754 755 756 757 770 769 768 767 766 765 764 763 761 762 760 759 758 771 772 773 774 236 237 245 244 246 247 249 248 265 404 403 402 401 400 399 398 397 396 395 394 381 382 383 384 385 386 387 388 390 389 413 414 415 416 417 418 419 420 423 424 422 427 426 425 421 428 430 431 432 433 434 435 436 437 410 411 412 408 409 407 406 405 391 392 393 380 379 378 377 376 375 374 369 368 367 366 365 364 363 362 361 359 360 339 340 338 337 336 335 341 342 344 345 346 347 348 349 350 351 352 353 355 354 358 357 356 429 343 1886 1887 1888 1889 1890 333 334 332 331 328 329 1902 1901 1900 1897 1896 1895 1894 1893 1892 1891 1877 1876 1875 1874 1873 1872 1871 1870 1869 1868 1864 1865 1866 1867 1863 1862 1860 1859 1858 1857 1856 1855 1854 1853 1880 1879 1878 1882 1881 1883 1884 1885 1898 1899 330 1903 1904 1911 1912 1913 1914 1915 1916 1917 1920 1919 1918 1952 1953 1954 1951 1957 1955 1956 1958 1959 1960 1961 1962 1963 1964 1965 2009 2010 2011 2012 2013 2014 2015 2016 2017 2018 2019 2020 2021 2022 2023 2024 2025 2026 2027 317 318 319 320 321 322 323 324 325 327 326 1905 1906 1907 1908 1909 1910 1922 1921 1923 1924 1926 1925 1946 1945 1947 1948 1950 1949 1944 1943 1941 1940 1939 1938 1937 1936 1935 1934 1933 1932 1930 1931 1927 1928 1929 1861 1942 1543 1542 1541 1540 1539 1538 1537 1536 1535 1534 1533 1520 1521 1522 1523 1524 1525 1526 1527 1529 1528 1552 1553 1554 1555 1556 1557 1558 1559 1562 1563 1561 1566 1565 1564 1560 1567 1569 1570 1571 1572 1573 1574 1575 1576 1549 1550 1551 1547 1548 1546 1545 1544 1530 1531 1532 1519 1518 1517 1516 1513 1512 1511 1510 1509 1508 1507 1506 1505 1504 1503 1502 1500 1501 1480 1481 1479 1478 1477 1476 1475 1472 1473 1474 1471 1470 1469 1468 1467 1466 1465 1464 1463 1462 1461 1460 1459 1981 1982 1983 1984 1985 1986 1987 1988 1989 1990 1991 1992 1993 1994 1995 1996 1997 1966 1967 1968 1969 1970 1971 1972 1973 1974 1975 1976 1977 1978 1979 1980 1515 1514 1482 1483 1485 1486 1487 1488 1489 1490 1491 1492 1493 1494 1496 1495 1499 1498 1497 1568 1484 1666 1665 1664 1663 1662 1661 1660 1659 1658 1657 1656 1655 1654 1653 1652 1651 1650 1649 1646 1647 1648 1678 1679 1680 1681 1682 1683 1684 1685 1686 1687 1688 1689 1690 1691 1692 1693 1694 1695 1696 1697 1701 1700 1699 1638 1639 1640 1641 1642 1643 1644 1645 1627 1626 1628 1629 1631 1632 1633 1634 1635 1637 1636 1630 1619 1618 1605 1604 1603 1606 1607 1608 1609 1610 1611 1614 1711 1710 1615 1616 1617 1708 1707 1709 1706 1705 1704 1703 1702 1698 1625 1624 1623 1622 1597 1598 1599 1600 1601 1602 1620 1621 1596 1595 1591 1593 1594 1592 1589 1590 1588 1586 1587 1584 1585 1739 1740 1738 1737 1736 1735 1734 1733 1732 1731 1730 1729 1728 1727 1726 1725 1724 1723 1722 1721 1720 1719 1718 1715 1716 1717 1774 1775 1773 1776 1777 1778 1771 1770 1769 1768 1767 1766 1765 1764 1763 1762 1761 1758 1760 1759 1757 1756 1755 1753 1754 1752 1751 1749 1750 1746 1745 1747 1748 1744 1743 1741 1742 1852 1851 1850 1849 1848 1847 1846 1845 1844 1843 1842 1841 1840 1839 1838 1836 1835 1837 1834 1833 1832 1831 1828 1827 1826 1825 1824 1822 1814 1815 1816 1817 1818 1819 1821 1820 1813 1812 1811 1810 1809 1804 1805 1808 1806 1807 1830 1829 1823 1787 1788 1789 1790 1791 1792 1795 1794 1793 1796 1797 1800 1799 1798 1801 1802 1803 544 545 546 547 548 549 550 551 552 553 554 555 556 557 558 562 561 560 499 500 501 502 503 504 505 506 507 510 508 509 540 539 541 542 543 538 537 536 535 534 533 532 531 530 529 528 525 527 526 524 523 522 521 520 519 518 517 516 515 514 513 512 511 488 487 489 490 492 493 494 495 496 498 497 491 480 479 466 465 464 467 468 469 470 471 472 475 572 571 476 477 478 569 568 570 567 566 565 564 563 559 486 485 484 483 458 459 460 461 462 463 481 482 457 456 452 454 455 453 450 451 449 447 448 445 446 600 601 599 598 597 596 595 594 593 592 591 590 589 588 587 586 585 584 583 582 581 580 579 576 577 578 635 636 634 637 638 639 632 631 630 629 628 627 626 625 624 623 622 619 621 620 618 617 616 614 615 613 612 610 611 607 606 608 609 605 604 602 603 713 712 711 710 709 708 707 706 705 704 703 702 701 700 699 697 696 698 695 694 693 692 689 688 687 686 685 683 675 676 677 678 679 680 682 681 674 673 672 671 670 665 666 669 667 668 691 690 684 648 649 650 651 652 653 656 655 654 657 658 661 660 659 662 663 664 647 645 646 644 643 642 641 640 633 575 574 573 474 473 442 441 440 439 438 443 444 723 726 727 725 730 729 728 724 731 732 778 779 780 781 782 783 784 785 786 787 788 789 231 230 232 776 775 777 235 234 233 214 213 212 211 210 209 208 207 206 205 204 203 289 290 291 292 293 294 295 296 297 298 299 300 301 302 200 201 202 199 198 197 196 195 194 193 192 191 190 189 188 187 186 185 316 315 314 313 312 311 310 309 308 307 306 372 373 370 371 305 304 303 184 183 182 181 180 179 176 177 178 119 118 120 117 116 115 122 123 124 125 126 127 128 129 130 131 132 135 133 134 165 164 166 167 168 169 170 171 172 173 174 175 2134 2135 2138 2137 2136 2133 2132 2131 2130 2129 2142 2143 2144 2145 2146 2147 2148 2149 2150 2125 2124 2123 2122 2121 2119 2117 2118 2116 2115 2114 2113 2112 2111 2110 2107 2109 2108 2048 2047 2046 2050 2051 2052 2049 2054 2053 2055 2056 2057 2058 2059 2060 2061 2062 2063 2064 2065 2066 2067 2069 2068 2070 2071 2072 2073 2074 2075 2076 2079 2080 2078 2077 2085 2086 2087 2088 2089 2091 2090 2092 2093 2094 2095 2096 2097 2098 2101 2100 2099 2102 2104 2103 2105 2106 2120 2126 2127 2128 2141 2140 2139 2036 2037 2035 2034 2033 2041 2042 2043 2044 2045 2040 2039 2038 2032 2031 2030 2029 2028 121 114 113 112 111 110 109 107 108 101 102 103 104 105 106 82 83 84 89 90 91 92 93 94 95 96 97 98 99 100 76 77 78 79 80 69 71 72 73 74 75 81 63 64 66 65 61 62 86 87 85 88 59 60 55 57 58 56 53 54 52 50 51 48 49 47 46 45 44 43 42 41 151 152 150 149 148 147 146 145 144 143 142 141 140 139 138 137 136 162 163 161 160 159 158 157 156 155 154 153 2163 2162 2161 2160 2159 2158 2157 2156 2154 2153 2155 2152 2151 2168 2169 2170 2167 2166 2165 2164 2349 2348 2347 2346 2345 2344 2342 2341 2343 2358 2357 2356 2355 2354 2353 2352 2351 2350 2201 2200 2199 2198 2197 2196 2195 2194 2193 2192 2191 2190 2189 2188 2187 2186 2182 2183 2184 2185 2181 2180 2178 2177 2176 2175 2174 2173 2172 2171 2221 2220 2218 2219 2207 2208 2209 2210 2211 2212 2213 2214 2227 2226 2225 2224 2223 2222 2217 2216 2215 2228 2229 2230 2231 2232 2233 2234 2239 2240 2243 2242 2241 2238 2237 2236 2235 2301 2302 2300 2299 2298 2297 2296 2295 2294 2293 2292 1165 1164 1163 1162 1161 1160 1159 1158 1157 1156 1155 1154 1153 1152 1151 1150 1149 1148 1147 2319 2318 2317 2316 2315 2314 2313 2312 2311 2310 2309 2308 2307 2306 2305 2304 2303 2245 2244 2246 2247 2249 2248 2269 2268 2270 2271 2273 2272 2267 2266 2264 2263 2262 2261 2260 2259 2258 2257 2256 2255 2253 2254 2250 2251 2252 2179 2265 1281 1280 1279 1278 1277 2275 2274 2276 2277 2280 2279 1265 1266 1267 1270 1271 1272 1273 1274 1275 1276 1290 1291 1292 1293 1294 1295 1296 1297 1300 1301 1299 1304 1303 1302 1298 1305 1307 1308 1309 1310 1311 1312 1313 1314 1287 1288 1289 1285 1286 1284 1283 1282 1269 1268 2278 1264 1263 1256 1255 1254 1253 1252 1251 1250 1249 1248 1247 1246 1245 1244 1243 1241 1242 1221 1222 1220 1219 1218 1217 1216 1213 1214 1215 1212 1211 1210 1209 1208 1207 1206 1205 1204 1203 1202 1201 1194 1193 1192 1191 1190 1189 1188 1187 1186 1185 1184 1183 1182 1181 1180 1179 1178 1177 2291 2290 2289 2288 2287 2286 2285 2284 2283 2281 2282 1262 1261 1260 1259 1258 1257 1223 1224 1226 1227 1228 1229 1230 1231 1232 1233 1234 1235 1237 1236 1240 1239 1238 1306 1225 1426 1425 1424 1423 1422 1421 1420 1419 1418 1417 1416 1415 1414 1413 1412 1411 1410 1409 1406 1407 1408 1439 1438 1440 1441 1442 1443 1444 1445 1446 1447 1448 1449 1450 1451 1452 1393 1392 1394 1391 1390 1389 1396 1397 1398 1399 1400 1401 1402 1403 1404 1405 1344 1343 1345 1353 1354 1352 1351 1350 1349 1348 1347 1346 1355 1356 1357 1358 1363 1364 1365 1366 1367 1368 1369 1377 1378 1379 1380 1381 1383 1382 1384 1385 1386 1387 1388 1395 1375 1376 1371 1370 1372 1373 1374 2002 2001 2000 1999 1998 2008 2007 2006 2005 2004 2003 1362 1359 1361 1360 1336 1335 1339 1340 1341 1342 1338 1337 1334 1333 1329 1331 1332 1330 1327 1328 1326 1324 1325 1322 1323 1321 1320 1319 1318 1317 1316 1315 1429 1430 1431 1428 1427 1432 1433 1434 1435 1436 1437 1453 1454 1455 1456 1457 1458 1577 1578 1579 1580 1581 1582 1583 1669 1670 1671 1668 1667 1672 1673 1674 1675 1676 1677 1612 1613 1712 1714 1713 1772 1779 1780 1781 1782 1783 1784 1786 1785 790 791 792 793 794 846 845 843 844 1020 1019 1018 1017 1015 1016 1012 1013 1014 941 1008 1009 1011 1010 1027 1025 1024 1023 1022 1021 22 23 26 27 24 32 2203 2202 2204 2205 2206 2082 2081 2083 2084 70 68 67 1006 1007 1063 1064 1062 1061 1060 1059 1058 1057 1056 1055 1054 1105 1104 1103 1102 1101 1100 1099 1098 1097 1096 1095 1094 1093 1092 1091 1090 1089 1088 1082 1081 1080 1079 1078 1077 1076 1075 1074 1073 1072 1071 1070 1069 1068 1067 1066 1065 1106 1107 1108 1109 1110 1111 1113 1114 1115 1116 1136 1137 1138 1139 1140 1141 1142 1143 1144 1145 1146 1166 1167 1168 1169 1170 1171 1172 1173 1174 1175 1176 1200 1199 1198 1197 1196 1195 1112 1087 1086 1085 1084 1083 
